Route #1: 0 13 39 34 26 21 6 4 2 12 0
Route #2: 0 35 32 9 8 16 7 40 18 0
Route #3: 0 20 17 23 15 10 0
Route #4: 0 44 33 5 22 14 0
Route #5: 0 36 19 29 41 43 0
Route #6: 0 28 3 11 27 31 24 0
Route #7: 0 30 37 1 42 25 38 0
Cost 1288:
